/*********************************************
 * OPL 12.6.0.0 Data
 * Author: Adrian Rodriguez Bazaga, Pau Rodriguez Esmerats
 * Creation Date: 10/12/2017 at 07:27:26
 *********************************************/

maxConsec=6;
maxPresence=12;
maxHours=8;
minHours=2;
hours=18;
demand= [24 32 42 32 47 33 37 36 53 46 48 34 35 28 24 26 18 22  ];
nNurses=120;
